<number of tasks>
100

<cycle time>
1000

<order strength>
0.196


<task times>
1 92
2 122
3 101
4 76
5 44
6 195
7 124
8 328
9 326
10 124
11 179
12 186
13 147
14 60
15 116
16 134
17 50
18 313
19 121
20 172
21 97
22 161
23 48
24 99
25 162
26 226
27 63
28 26
29 132
30 35
31 21
32 41
33 67
34 109
35 138
36 54
37 134
38 265
39 154
40 150
41 183
42 155
43 162
44 179
45 63
46 103
47 121
48 87
49 142
50 203
51 196
52 153
53 259
54 50
55 89
56 178
57 80
58 28
59 160
60 216
61 229
62 307
63 165
64 210
65 79
66 86
67 184
68 205
69 125
70 25
71 85
72 293
73 55
74 234
75 118
76 48
77 63
78 222
79 222
80 55
81 55
82 122
83 128
84 148
85 68
86 25
87 250
88 203
89 146
90 52
91 180
92 120
93 148
94 122
95 274
96 94
97 34
98 129
99 159
100 110

<precedence relations>
1,6
2,7
3,8
4,9
4,10
4,12
4,13
4,14
4,48
4,66
5,11
5,23
6,21
7,15
8,16
9,17
10,18
10,19
10,23
11,20
11,22
11,79
13,47
13,95
15,24
16,29
17,25
18,26
19,27
20,28
21,30
21,31
22,67
23,32
24,36
25,33
26,34
27,35
28,35
29,37
29,40
29,41
29,57
29,90
30,39
31,35
31,41
31,94
32,38
33,45
34,46
35,42
35,43
36,48
36,49
36,58
36,82
37,44
37,47
38,47
39,99
40,64
40,66
40,92
41,50
42,51
43,53
44,55
45,52
46,54
47,56
48,64
49,57
50,58
51,62
52,59
53,60
54,61
55,63
56,65
56,67
57,66
58,64
58,97
59,69
60,70
61,72
62,71
63,68
64,85
65,89
67,73
68,74
69,79
70,76
71,75
72,78
73,77
73,80
73,81
73,82
73,83
73,84
73,85
74,86
75,87
76,89
77,88
78,90
79,93
82,92
82,96
84,91
84,94
86,95
87,95
88,96
92,98
93,97
93,99
93,100

<end>
